40
1 0 9
2 0 40
2 1 12
3 0 11
3 1 40
3 2 8
4 0 17
4 1 40
4 2 23
4 3 30
5 0 34
5 1 4
5 2 17
5 3 12
5 4 30
6 0 6
6 1 36
6 2 6
6 3 9
6 4 5
6 5 3
7 0 15
7 1 18
7 2 7
7 3 13
7 4 29
7 5 35
7 6 14
8 0 12
8 1 13
8 2 31
8 3 19
8 4 1
8 5 12
8 6 16
8 7 26
9 0 37
9 1 12
9 2 13
9 3 17
9 4 37
9 5 19
9 6 22
9 7 27
9 8 7
10 0 35
10 1 34
10 2 23
10 3 37
10 4 33
10 5 10
10 6 5
10 7 32
10 8 2
10 9 16
11 0 20
11 1 3
11 2 22
11 3 19
11 4 34
11 5 40
11 6 7
11 7 6
11 8 5
11 9 15
11 10 40
12 0 40
12 1 27
12 2 28
12 3 21
12 4 1
12 5 14
12 6 21
12 7 14
12 8 1
12 9 1
12 10 11
12 11 36
13 0 34
13 1 13
13 2 7
13 3 14
13 4 33
13 5 35
13 6 6
13 7 39
13 8 2
13 9 39
13 10 11
13 11 7
13 12 4
14 0 38
14 1 18
14 2 15
14 3 13
14 4 8
14 5 36
14 6 9
14 7 14
14 8 6
14 9 21
14 10 34
14 11 22
14 12 14
14 13 2
15 0 11
15 1 8
15 2 4
15 3 30
15 4 38
15 5 26
15 6 9
15 7 2
15 8 15
15 9 16
15 10 39
15 11 6
15 12 35
15 13 37
15 14 25
16 0 36
16 1 9
16 2 36
16 3 15
16 4 6
16 5 33
16 6 5
16 7 6
16 8 11
16 9 7
16 10 35
16 11 31
16 12 7
16 13 17
16 14 4
16 15 27
17 0 10
17 1 28
17 2 13
17 3 29
17 4 23
17 5 34
17 6 7
17 7 5
17 8 40
17 9 29
17 10 2
17 11 24
17 12 10
17 13 37
17 14 4
17 15 33
17 16 40
18 0 7
18 1 40
18 2 13
18 3 20
18 4 34
18 5 26
18 6 5
18 7 9
18 8 17
18 9 40
18 10 23
18 11 31
18 12 38
18 13 34
18 14 30
18 15 39
18 16 6
18 17 39
19 0 33
19 1 24
19 2 3
19 3 1
19 4 16
19 5 22
19 6 31
19 7 14
19 8 39
19 9 10
19 10 1
19 11 7
19 12 33
19 13 25
19 14 23
19 15 6
19 16 35
19 17 31
19 18 29
20 0 11
20 1 19
20 2 19
20 3 13
20 4 8
20 5 13
20 6 32
20 7 6
20 8 2
20 9 20
20 10 37
20 11 18
20 12 36
20 13 38
20 14 19
20 15 7
20 16 22
20 17 9
20 18 2
20 19 39
21 0 14
21 1 31
21 2 9
21 3 10
21 4 7
21 5 5
21 6 26
21 7 28
21 8 34
21 9 15
21 10 1
21 11 37
21 12 21
21 13 7
21 14 22
21 15 18
21 16 32
21 17 35
21 18 38
21 19 4
21 20 29
22 0 33
22 1 27
22 2 13
22 3 40
22 4 25
22 5 21
22 6 8
22 7 26
22 8 6
22 9 28
22 10 4
22 11 16
22 12 18
22 13 19
22 14 11
22 15 17
22 16 33
22 17 31
22 18 31
22 19 4
22 20 35
22 21 34
23 0 25
23 1 38
23 2 5
23 3 31
23 4 38
23 5 36
23 6 29
23 7 40
23 8 25
23 9 30
23 10 35
23 11 20
23 12 25
23 13 7
23 14 30
23 15 30
23 16 4
23 17 31
23 18 14
23 19 16
23 20 33
23 21 4
23 22 30
24 0 12
24 1 29
24 2 20
24 3 3
24 4 15
24 5 18
24 6 16
24 7 19
24 8 19
24 9 4
24 10 3
24 11 27
24 12 5
24 13 2
24 14 13
24 15 8
24 16 32
24 17 32
24 18 24
24 19 27
24 20 14
24 21 36
24 22 8
24 23 3
25 0 22
25 1 3
25 2 29
25 3 7
25 4 27
25 5 40
25 6 7
25 7 3
25 8 40
25 9 27
25 10 4
25 11 20
25 12 18
25 13 7
25 14 23
25 15 35
25 16 24
25 17 6
25 18 10
25 19 38
25 20 5
25 21 13
25 22 18
25 23 3
25 24 4
26 0 10
26 1 17
26 2 12
26 3 29
26 4 26
26 5 29
26 6 19
26 7 32
26 8 2
26 9 26
26 10 15
26 11 23
26 12 3
26 13 17
26 14 34
26 15 32
26 16 39
26 17 38
26 18 22
26 19 18
26 20 27
26 21 32
26 22 23
26 23 10
26 24 17
26 25 25
27 0 11
27 1 34
27 2 9
27 3 9
27 4 32
27 5 21
27 6 26
27 7 31
27 8 17
27 9 22
27 10 34
27 11 4
27 12 19
27 13 28
27 14 3
27 15 37
27 16 28
27 17 24
27 18 22
27 19 24
27 20 39
27 21 28
27 22 26
27 23 30
27 24 39
27 25 12
27 26 10
28 0 14
28 1 19
28 2 28
28 3 36
28 4 1
28 5 25
28 6 27
28 7 18
28 8 38
28 9 4
28 10 18
28 11 2
28 12 28
28 13 28
28 14 7
28 15 11
28 16 14
28 17 27
28 18 26
28 19 27
28 20 1
28 21 8
28 22 23
28 23 16
28 24 14
28 25 8
28 26 16
28 27 15
29 0 1
29 1 7
29 2 6
29 3 12
29 4 27
29 5 5
29 6 19
29 7 12
29 8 33
29 9 39
29 10 13
29 11 12
29 12 10
29 13 7
29 14 35
29 15 13
29 16 19
29 17 5
29 18 5
29 19 40
29 20 40
29 21 1
29 22 9
29 23 11
29 24 20
29 25 25
29 26 21
29 27 16
29 28 1
30 0 25
30 1 8
30 2 35
30 3 4
30 4 25
30 5 20
30 6 24
30 7 7
30 8 11
30 9 6
30 10 17
30 11 37
30 12 28
30 13 28
30 14 6
30 15 40
30 16 9
30 17 15
30 18 24
30 19 24
30 20 21
30 21 8
30 22 27
30 23 2
30 24 13
30 25 38
30 26 29
30 27 31
30 28 34
30 29 29
31 0 24
31 1 27
31 2 38
31 3 38
31 4 9
31 5 36
31 6 11
31 7 34
31 8 34
31 9 7
31 10 6
31 11 10
31 12 25
31 13 24
31 14 3
31 15 32
31 16 32
31 17 8
31 18 35
31 19 1
31 20 22
31 21 30
31 22 35
31 23 8
31 24 3
31 25 36
31 26 24
31 27 15
31 28 19
31 29 8
31 30 15
32 0 16
32 1 27
32 2 40
32 3 1
32 4 35
32 5 16
32 6 39
32 7 40
32 8 32
32 9 39
32 10 31
32 11 37
32 12 12
32 13 8
32 14 15
32 15 23
32 16 27
32 17 37
32 18 35
32 19 21
32 20 10
32 21 40
32 22 22
32 23 29
32 24 39
32 25 16
32 26 4
32 27 22
32 28 36
32 29 9
32 30 32
32 31 21
33 0 34
33 1 16
33 2 4
33 3 4
33 4 22
33 5 23
33 6 13
33 7 38
33 8 37
33 9 21
33 10 32
33 11 6
33 12 21
33 13 30
33 14 3
33 15 13
33 16 9
33 17 19
33 18 39
33 19 29
33 20 29
33 21 5
33 22 25
33 23 26
33 24 9
33 25 29
33 26 19
33 27 37
33 28 25
33 29 5
33 30 11
33 31 1
33 32 6
34 0 40
34 1 21
34 2 18
34 3 32
34 4 23
34 5 15
34 6 38
34 7 22
34 8 7
34 9 30
34 10 4
34 11 36
34 12 26
34 13 22
34 14 20
34 15 10
34 16 3
34 17 15
34 18 28
34 19 14
34 20 40
34 21 15
34 22 25
34 23 19
34 24 15
34 25 35
34 26 35
34 27 15
34 28 15
34 29 38
34 30 16
34 31 7
34 32 23
34 33 3
35 0 23
35 1 22
35 2 12
35 3 32
35 4 38
35 5 32
35 6 3
35 7 24
35 8 10
35 9 1
35 10 17
35 11 29
35 12 29
35 13 10
35 14 17
35 15 24
35 16 25
35 17 5
35 18 37
35 19 40
35 20 19
35 21 38
35 22 16
35 23 7
35 24 19
35 25 20
35 26 17
35 27 22
35 28 11
35 29 22
35 30 20
35 31 34
35 32 28
35 33 33
35 34 2
36 0 19
36 1 17
36 2 21
36 3 10
36 4 31
36 5 22
36 6 2
36 7 6
36 8 16
36 9 21
36 10 12
36 11 26
36 12 36
36 13 5
36 14 1
36 15 34
36 16 11
36 17 6
36 18 18
36 19 36
36 20 2
36 21 1
36 22 34
36 23 21
36 24 8
36 25 34
36 26 16
36 27 35
36 28 39
36 29 8
36 30 23
36 31 3
36 32 16
36 33 31
36 34 2
36 35 39
37 0 1
37 1 1
37 2 19
37 3 34
37 4 9
37 5 27
37 6 5
37 7 35
37 8 3
37 9 27
37 10 37
37 11 34
37 12 25
37 13 12
37 14 16
37 15 20
37 16 3
37 17 21
37 18 25
37 19 7
37 20 13
37 21 13
37 22 15
37 23 34
37 24 25
37 25 37
37 26 22
37 27 33
37 28 22
37 29 29
37 30 7
37 31 12
37 32 15
37 33 40
37 34 8
37 35 40
37 36 25
38 0 25
38 1 33
38 2 18
38 3 17
38 4 36
38 5 21
38 6 16
38 7 35
38 8 24
38 9 20
38 10 27
38 11 18
38 12 2
38 13 15
38 14 12
38 15 20
38 16 11
38 17 22
38 18 4
38 19 37
38 20 28
38 21 16
38 22 18
38 23 34
38 24 28
38 25 6
38 26 11
38 27 40
38 28 25
38 29 14
38 30 29
38 31 24
38 32 37
38 33 34
38 34 18
38 35 24
38 36 5
38 37 11
39 0 37
39 1 8
39 2 4
39 3 37
39 4 10
39 5 1
39 6 6
39 7 32
39 8 38
39 9 16
39 10 2
39 11 12
39 12 7
39 13 32
39 14 28
39 15 12
39 16 7
39 17 1
39 18 12
39 19 18
39 20 22
39 21 5
39 22 9
39 23 7
39 24 18
39 25 30
39 26 24
39 27 39
39 28 1
39 29 22
39 30 28
39 31 7
39 32 3
39 33 6
39 34 31
39 35 40
39 36 29
39 37 5
39 38 12
